(set-info :source |printed by MathSAT|)
(declare-fun param_e6 () Bool)
(declare-fun call_illinois.ite29 () Int)
(declare-fun call_illinois.ite32 () Int)
(declare-fun call_illinois.ite38 () Int)
(declare-fun call_illinois.invalid () Int)
(declare-fun call_illinois.ite () Int)
(declare-fun param_e1 () Bool)
(declare-fun call_excludes9.excludes () Bool)
(declare-fun call_illinois.ite6 () Int)
(declare-fun call_illinois.ite2 () Int)
(declare-fun invalid () Int)
(declare-fun call_illinois.ite13 () Int)
(declare-fun param_e4 () Bool)
(declare-fun call_illinois.ite33 () Int)
(declare-fun call_illinois.ite40 () Int)
(declare-fun call_illinois.ite35 () Int)
(declare-fun call_illinois.ite19 () Int)
(declare-fun call_illinois.ite37 () Int)
(declare-fun call_illinois.ite9 () Int)
(declare-fun call_illinois.ite39 () Int)
(declare-fun call_illinois.ite8 () Int)
(declare-fun exclusive () Int)
(declare-fun call_illinois.ite44 () Int)
(declare-fun call_illinois.ite23 () Int)
(declare-fun call_illinois.exclusive () Int)
(declare-fun call_illinois.ite42 () Int)
(declare-fun shared () Int)
(declare-fun call_illinois.ite43 () Int)
(declare-fun call_illinois.ite28 () Int)
(declare-fun call_illinois.flby4 () Int)
(declare-fun call_illinois.ite36 () Int)
(declare-fun call_illinois.ite45 () Int)
(declare-fun call_illinois.ite7 () Int)
(declare-fun call_illinois.ite21 () Int)
(declare-fun env () Bool)
(declare-fun param_e5 () Bool)
(declare-fun call_Sofar.Sofar () Bool)
(declare-fun call_illinois.ite24 () Int)
(declare-fun call_illinois.ite22 () Int)
(declare-fun call_illinois.ite31 () Int)
(declare-fun call_illinois.ite5 () Int)
(declare-fun call_illinois.ite18 () Int)
(declare-fun call_illinois.ite47 () Int)
(declare-fun call_illinois.flby2 () Int)
(declare-fun call_illinois.ite30 () Int)
(declare-fun call_illinois.ite14 () Int)
(declare-fun dirty () Int)
(declare-fun param_e9 () Bool)
(declare-fun _OK_ () Bool)
(declare-fun call_illinois.ite12 () Int)
(declare-fun call_illinois.ite4 () Int)
(declare-fun param_e7 () Bool)
(declare-fun call_illinois.ite15 () Int)
(declare-fun param_e8 () Bool)
(declare-fun call_illinois.shared () Int)
(declare-fun call_illinois.ite41 () Int)
(declare-fun call_illinois.g6 () Bool)
(declare-fun call_illinois.ite34 () Int)
(declare-fun call_illinois.ite25 () Int)
(declare-fun call_illinois.flby () Int)
(declare-fun call_illinois.ite17 () Int)
(declare-fun param_e2 () Bool)
(declare-fun call_illinois.ite11 () Int)
(declare-fun call_illinois.ite27 () Int)
(declare-fun call_illinois.g5 () Bool)
(declare-fun call_illinois.ite16 () Int)
(declare-fun call_illinois.ite3 () Int)
(declare-fun call_illinois.flby3 () Int)
(declare-fun param_init_invalid () Int)
(declare-fun call_illinois.ite20 () Int)
(declare-fun call_illinois.ite46 () Int)
(declare-fun call_illinois.ite10 () Int)
(declare-fun param_e3 () Bool)
(declare-fun call_illinois.dirty () Int)
(declare-fun call_illinois.ite26 () Int)
(declare-fun call_Sofar.flby () Bool)
(define-fun .def_1254 () Bool (= call_Sofar.flby call_Sofar.Sofar))
(define-fun .def_1049 () Bool (not param_e2))
(define-fun .def_1030 () Bool (not param_e1))
(define-fun .def_1191 () Bool (and .def_1030 .def_1049))
(define-fun .def_1077 () Bool (not param_e3))
(define-fun .def_1192 () Bool (and .def_1077 .def_1191))
(define-fun .def_1103 () Bool (not param_e4))
(define-fun .def_1193 () Bool (and .def_1103 .def_1192))
(define-fun .def_1121 () Bool (not param_e5))
(define-fun .def_1194 () Bool (and .def_1121 .def_1193))
(define-fun .def_1146 () Bool (not param_e6))
(define-fun .def_1195 () Bool (and .def_1146 .def_1194))
(define-fun .def_936 () Bool (not param_e7))
(define-fun .def_1196 () Bool (and .def_936 .def_1195))
(define-fun .def_943 () Bool (not param_e8))
(define-fun .def_1197 () Bool (and .def_943 .def_1196))
(define-fun .def_925 () Bool (not param_e9))
(define-fun .def_1242 () Bool (and .def_925 .def_1197))
(define-fun .def_1234 () Bool (and param_e1 .def_1049))
(define-fun .def_1235 () Bool (and .def_1077 .def_1234))
(define-fun .def_1236 () Bool (and .def_1103 .def_1235))
(define-fun .def_1237 () Bool (and .def_1121 .def_1236))
(define-fun .def_1238 () Bool (and .def_1146 .def_1237))
(define-fun .def_1239 () Bool (and .def_936 .def_1238))
(define-fun .def_1240 () Bool (and .def_943 .def_1239))
(define-fun .def_1241 () Bool (and .def_925 .def_1240))
(define-fun .def_1243 () Bool (or .def_1241 .def_1242))
(define-fun .def_1226 () Bool (and .def_1030 param_e2))
(define-fun .def_1227 () Bool (and .def_1077 .def_1226))
(define-fun .def_1228 () Bool (and .def_1103 .def_1227))
(define-fun .def_1229 () Bool (and .def_1121 .def_1228))
(define-fun .def_1230 () Bool (and .def_1146 .def_1229))
(define-fun .def_1231 () Bool (and .def_936 .def_1230))
(define-fun .def_1232 () Bool (and .def_943 .def_1231))
(define-fun .def_1233 () Bool (and .def_925 .def_1232))
(define-fun .def_1244 () Bool (or .def_1233 .def_1243))
(define-fun .def_1219 () Bool (and param_e3 .def_1191))
(define-fun .def_1220 () Bool (and .def_1103 .def_1219))
(define-fun .def_1221 () Bool (and .def_1121 .def_1220))
(define-fun .def_1222 () Bool (and .def_1146 .def_1221))
(define-fun .def_1223 () Bool (and .def_936 .def_1222))
(define-fun .def_1224 () Bool (and .def_943 .def_1223))
(define-fun .def_1225 () Bool (and .def_925 .def_1224))
(define-fun .def_1245 () Bool (or .def_1225 .def_1244))
(define-fun .def_1213 () Bool (and param_e4 .def_1192))
(define-fun .def_1214 () Bool (and .def_1121 .def_1213))
(define-fun .def_1215 () Bool (and .def_1146 .def_1214))
(define-fun .def_1216 () Bool (and .def_936 .def_1215))
(define-fun .def_1217 () Bool (and .def_943 .def_1216))
(define-fun .def_1218 () Bool (and .def_925 .def_1217))
(define-fun .def_1246 () Bool (or .def_1218 .def_1245))
(define-fun .def_1208 () Bool (and param_e5 .def_1193))
(define-fun .def_1209 () Bool (and .def_1146 .def_1208))
(define-fun .def_1210 () Bool (and .def_936 .def_1209))
(define-fun .def_1211 () Bool (and .def_943 .def_1210))
(define-fun .def_1212 () Bool (and .def_925 .def_1211))
(define-fun .def_1247 () Bool (or .def_1212 .def_1246))
(define-fun .def_1204 () Bool (and param_e6 .def_1194))
(define-fun .def_1205 () Bool (and .def_936 .def_1204))
(define-fun .def_1206 () Bool (and .def_943 .def_1205))
(define-fun .def_1207 () Bool (and .def_925 .def_1206))
(define-fun .def_1248 () Bool (or .def_1207 .def_1247))
(define-fun .def_1201 () Bool (and param_e7 .def_1195))
(define-fun .def_1202 () Bool (and .def_943 .def_1201))
(define-fun .def_1203 () Bool (and .def_925 .def_1202))
(define-fun .def_1249 () Bool (or .def_1203 .def_1248))
(define-fun .def_1199 () Bool (and param_e8 .def_1196))
(define-fun .def_1200 () Bool (and .def_925 .def_1199))
(define-fun .def_1250 () Bool (or .def_1200 .def_1249))
(define-fun .def_1198 () Bool (and param_e9 .def_1197))
(define-fun .def_1251 () Bool (or .def_1198 .def_1250))
(define-fun .def_1252 () Bool (= call_excludes9.excludes .def_1251))
(define-fun .def_1189 () Bool (= call_illinois.flby4 call_illinois.shared))
(define-fun .def_1187 () Bool (= call_illinois.flby3 call_illinois.exclusive))
(define-fun .def_1185 () Bool (= call_illinois.flby2 call_illinois.dirty))
(define-fun .def_1183 () Bool (= call_illinois.flby call_illinois.invalid))
(define-fun .def_1179 () Bool (= call_illinois.ite11 call_illinois.ite8))
(define-fun .def_1180 () Bool (or .def_943 .def_1179))
(define-fun .def_1176 () Bool (= call_illinois.ite10 call_illinois.ite11))
(define-fun .def_1177 () Bool (or param_e8 .def_1176))
(define-fun .def_1181 () Bool (and .def_1177 .def_1180))
(define-fun .def_1172 () Bool (= call_illinois.ite12 call_illinois.ite7))
(define-fun .def_1173 () Bool (or .def_936 .def_1172))
(define-fun .def_1169 () Bool (= call_illinois.ite12 call_illinois.ite11))
(define-fun .def_1170 () Bool (or param_e7 .def_1169))
(define-fun .def_1174 () Bool (and .def_1170 .def_1173))
(define-fun .def_1164 () Bool (= call_illinois.ite43 call_illinois.ite44))
(define-fun .def_1165 () Bool (or param_e6 .def_1164))
(define-fun .def_1161 () Bool (= call_illinois.ite41 call_illinois.ite44))
(define-fun .def_1162 () Bool (or .def_1146 .def_1161))
(define-fun .def_1158 () Bool (= call_illinois.ite33 call_illinois.ite34))
(define-fun .def_1159 () Bool (or param_e6 .def_1158))
(define-fun .def_1155 () Bool (= call_illinois.ite31 call_illinois.ite34))
(define-fun .def_1156 () Bool (or .def_1146 .def_1155))
(define-fun .def_1152 () Bool (= call_illinois.ite23 call_illinois.ite24))
(define-fun .def_1153 () Bool (or param_e6 .def_1152))
(define-fun .def_1149 () Bool (= call_illinois.ite21 call_illinois.ite24))
(define-fun .def_1150 () Bool (or .def_1146 .def_1149))
(define-fun .def_1145 () Bool (= call_illinois.ite13 call_illinois.ite6))
(define-fun .def_1147 () Bool (or .def_1145 .def_1146))
(define-fun .def_1141 () Bool (= call_illinois.ite13 call_illinois.ite12))
(define-fun .def_1143 () Bool (or .def_1141 param_e6))
(define-fun .def_1148 () Bool (and .def_1143 .def_1147))
(define-fun .def_1151 () Bool (and .def_1148 .def_1150))
(define-fun .def_1154 () Bool (and .def_1151 .def_1153))
(define-fun .def_1157 () Bool (and .def_1154 .def_1156))
(define-fun .def_1160 () Bool (and .def_1157 .def_1159))
(define-fun .def_1163 () Bool (and .def_1160 .def_1162))
(define-fun .def_1166 () Bool (and .def_1163 .def_1165))
(define-fun .def_1136 () Bool (= call_illinois.ite45 call_illinois.ite44))
(define-fun .def_1137 () Bool (or param_e5 .def_1136))
(define-fun .def_1132 () Bool (= call_illinois.ite40 call_illinois.ite45))
(define-fun .def_1133 () Bool (or .def_1121 .def_1132))
(define-fun .def_1129 () Bool (= call_illinois.ite25 call_illinois.ite24))
(define-fun .def_1130 () Bool (or param_e5 .def_1129))
(define-fun .def_1125 () Bool (= call_illinois.ite25 call_illinois.ite20))
(define-fun .def_1126 () Bool (or .def_1121 .def_1125))
(define-fun .def_1120 () Bool (= call_illinois.ite14 call_illinois.ite5))
(define-fun .def_1122 () Bool (or .def_1120 .def_1121))
(define-fun .def_1116 () Bool (= call_illinois.ite14 call_illinois.ite13))
(define-fun .def_1118 () Bool (or .def_1116 param_e5))
(define-fun .def_1123 () Bool (and .def_1118 .def_1122))
(define-fun .def_1127 () Bool (and .def_1123 .def_1126))
(define-fun .def_1131 () Bool (and .def_1127 .def_1130))
(define-fun .def_1134 () Bool (and .def_1131 .def_1133))
(define-fun .def_1138 () Bool (and .def_1134 .def_1137))
(define-fun .def_1111 () Bool (= call_illinois.ite35 call_illinois.ite34))
(define-fun .def_1112 () Bool (or param_e4 .def_1111))
(define-fun .def_1107 () Bool (= call_illinois.ite35 call_illinois.ite30))
(define-fun .def_1108 () Bool (or .def_1103 .def_1107))
(define-fun .def_1102 () Bool (= call_illinois.ite26 call_illinois.ite19))
(define-fun .def_1104 () Bool (or .def_1102 .def_1103))
(define-fun .def_1098 () Bool (= call_illinois.ite26 call_illinois.ite25))
(define-fun .def_1100 () Bool (or .def_1098 param_e4))
(define-fun .def_1105 () Bool (and .def_1100 .def_1104))
(define-fun .def_1109 () Bool (and .def_1105 .def_1108))
(define-fun .def_1113 () Bool (and .def_1109 .def_1112))
(define-fun .def_1093 () Bool (= call_illinois.ite46 call_illinois.ite45))
(define-fun .def_1094 () Bool (or param_e3 .def_1093))
(define-fun .def_1089 () Bool (= call_illinois.ite46 call_illinois.ite39))
(define-fun .def_1090 () Bool (or .def_1077 .def_1089))
(define-fun .def_1085 () Bool (= call_illinois.ite36 call_illinois.ite35))
(define-fun .def_1086 () Bool (or param_e3 .def_1085))
(define-fun .def_1081 () Bool (= call_illinois.ite36 call_illinois.ite29))
(define-fun .def_1082 () Bool (or .def_1077 .def_1081))
(define-fun .def_1076 () Bool (= call_illinois.ite15 call_illinois.ite4))
(define-fun .def_1078 () Bool (or .def_1076 .def_1077))
(define-fun .def_1072 () Bool (= call_illinois.ite15 call_illinois.ite14))
(define-fun .def_1074 () Bool (or .def_1072 param_e3))
(define-fun .def_1079 () Bool (and .def_1074 .def_1078))
(define-fun .def_1083 () Bool (and .def_1079 .def_1082))
(define-fun .def_1087 () Bool (and .def_1083 .def_1086))
(define-fun .def_1091 () Bool (and .def_1087 .def_1090))
(define-fun .def_1095 () Bool (and .def_1091 .def_1094))
(define-fun .def_1067 () Bool (= call_illinois.ite47 call_illinois.ite46))
(define-fun .def_1068 () Bool (or param_e2 .def_1067))
(define-fun .def_1063 () Bool (= call_illinois.ite38 call_illinois.ite47))
(define-fun .def_1064 () Bool (or .def_1049 .def_1063))
(define-fun .def_1058 () Bool (= call_illinois.ite27 call_illinois.ite26))
(define-fun .def_1059 () Bool (or param_e2 .def_1058))
(define-fun .def_1054 () Bool (= call_illinois.ite18 call_illinois.ite27))
(define-fun .def_1055 () Bool (or .def_1049 .def_1054))
(define-fun .def_1048 () Bool (= call_illinois.ite16 call_illinois.ite3))
(define-fun .def_1050 () Bool (or .def_1048 .def_1049))
(define-fun .def_1044 () Bool (= call_illinois.ite16 call_illinois.ite15))
(define-fun .def_1046 () Bool (or .def_1044 param_e2))
(define-fun .def_1051 () Bool (and .def_1046 .def_1050))
(define-fun .def_1056 () Bool (and .def_1051 .def_1055))
(define-fun .def_1060 () Bool (and .def_1056 .def_1059))
(define-fun .def_1065 () Bool (and .def_1060 .def_1064))
(define-fun .def_1069 () Bool (and .def_1065 .def_1068))
(define-fun .def_1039 () Bool (= call_illinois.ite37 call_illinois.ite36))
(define-fun .def_1040 () Bool (or param_e1 .def_1039))
(define-fun .def_1035 () Bool (= call_illinois.ite28 call_illinois.ite37))
(define-fun .def_1036 () Bool (or .def_1030 .def_1035))
(define-fun .def_1029 () Bool (= call_illinois.ite17 call_illinois.ite2))
(define-fun .def_1031 () Bool (or .def_1029 .def_1030))
(define-fun .def_1025 () Bool (= call_illinois.ite17 call_illinois.ite16))
(define-fun .def_1027 () Bool (or .def_1025 param_e1))
(define-fun .def_1032 () Bool (and .def_1027 .def_1031))
(define-fun .def_1037 () Bool (and .def_1032 .def_1036))
(define-fun .def_1041 () Bool (and .def_1037 .def_1040))
(define-fun .def_1019 () Bool (= call_illinois.ite param_init_invalid))
(define-fun .def_1014 () Bool (<= param_init_invalid 0))
(define-fun .def_1020 () Bool (or .def_1014 .def_1019))
(define-fun .def_1016 () Int (+ call_illinois.ite param_init_invalid))
(define-fun .def_1017 () Bool (= .def_1016 1))
(define-fun .def_1015 () Bool (not .def_1014))
(define-fun .def_1018 () Bool (or .def_1015 .def_1017))
(define-fun .def_1021 () Bool (and .def_1018 .def_1020))
(define-fun .def_1011 () Bool (= env call_Sofar.Sofar))
(define-fun .def_1008 () Bool (= shared call_illinois.shared))
(define-fun .def_1005 () Bool (= exclusive call_illinois.exclusive))
(define-fun .def_1001 () Bool (= dirty call_illinois.dirty))
(define-fun .def_998 () Bool (= invalid call_illinois.invalid))
(define-fun .def_990 () Bool (<= shared 1))
(define-fun .def_991 () Bool (not .def_990))
(define-fun .def_987 () Bool (<= dirty 1))
(define-fun .def_988 () Bool (not .def_987))
(define-fun .def_992 () Bool (and .def_988 .def_991))
(define-fun .def_993 () Bool (not .def_992))
(define-fun .def_985 () Bool (not env))
(define-fun .def_994 () Bool (or .def_985 .def_993))
(define-fun .def_995 () Bool (= _OK_ .def_994))
(define-fun .def_999 () Bool (and .def_995 .def_998))
(define-fun .def_1002 () Bool (and .def_999 .def_1001))
(define-fun .def_1006 () Bool (and .def_1002 .def_1005))
(define-fun .def_1009 () Bool (and .def_1006 .def_1008))
(define-fun .def_1012 () Bool (and .def_1009 .def_1011))
(define-fun .def_1022 () Bool (and .def_1012 .def_1021))
(define-fun .def_1042 () Bool (and .def_1022 .def_1041))
(define-fun .def_1070 () Bool (and .def_1042 .def_1069))
(define-fun .def_1096 () Bool (and .def_1070 .def_1095))
(define-fun .def_1114 () Bool (and .def_1096 .def_1113))
(define-fun .def_1139 () Bool (and .def_1114 .def_1138))
(define-fun .def_1167 () Bool (and .def_1139 .def_1166))
(define-fun .def_1175 () Bool (and .def_1167 .def_1174))
(define-fun .def_1182 () Bool (and .def_1175 .def_1181))
(define-fun .def_1184 () Bool (and .def_1182 .def_1183))
(define-fun .def_1186 () Bool (and .def_1184 .def_1185))
(define-fun .def_1188 () Bool (and .def_1186 .def_1187))
(define-fun .def_1190 () Bool (and .def_1188 .def_1189))
(define-fun .def_1253 () Bool (and .def_1190 .def_1252))
(define-fun .def_1255 () Bool (and .def_1253 .def_1254))
(define-fun .def_981 () Bool (= call_excludes9.excludes call_Sofar.flby))
(define-fun .def_977 () Bool (= call_illinois.flby4 0))
(define-fun .def_974 () Bool (= call_illinois.flby3 0))
(define-fun .def_971 () Bool (= call_illinois.flby2 0))
(define-fun .def_968 () Bool (= call_illinois.ite call_illinois.flby))
(define-fun .def_962 () Bool (= call_illinois.ite41 0))
(define-fun .def_955 () Bool (not call_illinois.g6))
(define-fun .def_963 () Bool (or .def_955 .def_962))
(define-fun .def_958 () Bool (= call_illinois.ite21 1))
(define-fun .def_959 () Bool (or .def_955 .def_958))
(define-fun .def_953 () Bool (= call_illinois.ite31 0))
(define-fun .def_956 () Bool (or .def_953 .def_955))
(define-fun .def_960 () Bool (and .def_956 .def_959))
(define-fun .def_964 () Bool (and .def_960 .def_963))
(define-fun .def_949 () Bool (= call_illinois.ite40 0))
(define-fun .def_947 () Bool (not call_illinois.g5))
(define-fun .def_950 () Bool (or .def_947 .def_949))
(define-fun .def_941 () Bool (= call_illinois.ite42 call_illinois.ite43))
(define-fun .def_944 () Bool (or .def_941 .def_943))
(define-fun .def_934 () Bool (= call_illinois.ite22 call_illinois.ite23))
(define-fun .def_937 () Bool (or .def_934 .def_936))
(define-fun .def_929 () Bool (= call_illinois.ite9 call_illinois.ite10))
(define-fun .def_930 () Bool (or .def_925 .def_929))
(define-fun .def_923 () Bool (= call_illinois.ite32 call_illinois.ite33))
(define-fun .def_926 () Bool (or .def_923 .def_925))
(define-fun .def_931 () Bool (and .def_926 .def_930))
(define-fun .def_938 () Bool (and .def_931 .def_937))
(define-fun .def_945 () Bool (and .def_938 .def_944))
(define-fun .def_951 () Bool (and .def_945 .def_950))
(define-fun .def_965 () Bool (and .def_951 .def_964))
(define-fun .def_969 () Bool (and .def_965 .def_968))
(define-fun .def_972 () Bool (and .def_969 .def_971))
(define-fun .def_975 () Bool (and .def_972 .def_974))
(define-fun .def_978 () Bool (and .def_975 .def_977))
(define-fun .def_982 () Bool (and .def_978 .def_981))
(define-fun .def_1256 () Bool (and .def_982 .def_1255))
(assert .def_1256)
